%pal nprocs 1 end
! hf sto-3g TightSCF
! Opt Freq
* xyz 0 2
  6     -1.181234 -0.415006 -0.024793
  6     0.021375 0.543964 0.036049
  8     1.283556 -0.132677 -0.083697
  1     -2.258519 0.294364 0.034894
  1     -1.240232 -0.962193 -0.960676
  1     -1.232505 -1.091213 0.824119
  1     -0.030750 1.247708 -0.799406
  1     -0.025708 1.129285 0.962872
  1     1.303825 -0.741519 0.698524
  1     -3.035943 0.803108 0.078934
*

