%pal nprocs 1 end
! hf sto-3g TightSCF
! Opt Freq
* xyz 0 2
  6     1.072165 -0.649356 -0.000002
  6     0.101311 0.539751 0.000000
  8     -1.242419 0.027818 0.000009
  1     2.275362 -0.179629 -0.000001
  1     0.991995 -1.258659 0.895038
  1     0.991996 -1.258657 -0.895044
  1     0.286083 1.163306 0.883834
  1     0.286073 1.163300 -0.883841
  1     -1.806459 0.842644 0.000007
  1     3.141144 0.160845 0.000000
*

