%pal nprocs 1 end
! hf sto-3g TightSCF
! Opt Freq
* xyz 0 2
  6     -1.253456 0.004771 -0.194865
  6     0.115483 -0.532345 0.262087
  8     1.196601 0.378333 0.017479
  1     -1.481037 1.120324 0.420062
  1     -2.071376 -0.654642 0.078783
  1     -1.286602 0.243828 -1.254314
  1     0.095019 -0.706697 1.341742
  1     0.300329 -1.502423 -0.220323
  1     1.189305 0.500556 -0.966206
  1     -1.647372 1.918651 0.861170
*

