%pal nprocs 1 end
! hf sto-3g TightSCF
! Opt Freq
* xyz 0 2
  6     1.247954 -0.279115 -0.098182
  6     -0.091945 0.361197 0.310584
  8     -1.249746 -0.305477 -0.182991
  1     1.303134 -0.389254 -1.176978
  1     2.074273 0.343368 0.230803
  1     1.360522 -1.262413 0.352950
  1     -0.138001 0.549381 1.390476
  1     -0.139548 1.522400 -0.224283
  1     -1.219510 -1.199779 0.246264
  1     -0.178955 2.387623 -0.629718
*

