#======================================#
# INPUT FILE TEMPLATES FOR: GAUSSIAN   #
#======================================#

#-------------------------#
# MEP POINT CALCULATIONS  #
#-------------------------#

#- - - - - - - - - - - - - -#
start_meppoint TS_6W gaussian
%nproc=1   
%mem=1GB   
%chk=[Pilgrim_name].chk 
#p ONIOM(hf/3-21g:hf/sto-3g     )   
scf=verytight
NoSymm       
[Pilgrim_gradhess]           

Input file for MEP calculation

0 2       0 2
[Pilgrim_geometry]           

end_meppoint
#- - - - - - - - - - - - - -#


#======================================#
# INPUT FILE TEMPLATES FOR: ORCA       #
#======================================#

#-------------------------#
# MEP POINT CALCULATIONS  #
#-------------------------#

#- - - - - - - - - - - - - -#
start_meppoint TS_6W orca
%pal nprocs 1 end  
! hf sto-3g TightSCF        
[Pilgrim_gradhess]         
* xyz 0 2
[Pilgrim_geometry]         
*

end_meppoint
#- - - - - - - - - - - - - -#


