#======================================#
# INPUT FILE TEMPLATES FOR: GAUSSIAN   #
#======================================#

#-------------------------#
# MEP POINT CALCULATIONS  #
#-------------------------#

#- - - - - - - - - - - - - -#
start_meppoint ZE_TS gaussian
%nproc=1   
%mem=1GB   
%chk=[Pilgrim_name].chk 
#p hf sto-3g        
scf=verytight
NoSymm       
[Pilgrim_gradientcalc_start]
force
[Pilgrim_gradientcalc_end]
[Pilgrim_hessiancalc_start]
freq=noraman
[Pilgrim_hessiancalc_end]

Input file for MEP calculation

0 1        
[Pilgrim_geometry]           

end_meppoint
#- - - - - - - - - - - - - -#


#======================================#
# INPUT FILE TEMPLATES FOR: ORCA       #
#======================================#

#-------------------------#
# MEP POINT CALCULATIONS  #
#-------------------------#

#- - - - - - - - - - - - - -#
start_meppoint ZE_TS orca
%pal nprocs 1 end  
%maxcore 1000 
! hf sto-3g TightSCF        
[Pilgrim_gradientcalc_start]
! EnGrad
[Pilgrim_gradientcalc_end]
[Pilgrim_hessiancalc_start]
! Freq
[Pilgrim_hessiancalc_end]
* xyz 0 1
[Pilgrim_geometry]         
*

end_meppoint
#- - - - - - - - - - - - - -#


