#======================================#
# INPUT FILE TEMPLATES FOR: GAUSSIAN   #
#======================================#

#-------------------------#
# MEP POINT CALCULATIONS  #
#-------------------------#

#- - - - - - - - - - - - - -#
start_meppoint nd3_planar gaussian
%nproc=1   
%mem=1GB   
%chk=[Pilgrim_name].chk 
#p pm6
scf=verytight
NoSymm       
[Pilgrim_gradhess]           

Input file for MEP calculation

0 1        
[Pilgrim_geometry]           

end_meppoint
#- - - - - - - - - - - - - -#

#- - - - - - - - - - - - - -#
start_meppoint nh3_planar gaussian
%nproc=1   
%mem=1GB   
%chk=[Pilgrim_name].chk 
#p pm6
scf=verytight
NoSymm       
[Pilgrim_gradhess]           

Input file for MEP calculation

0 1        
[Pilgrim_geometry]           

end_meppoint
#- - - - - - - - - - - - - -#

#-------------------------#
# HIGH-LEVEL CALCULATIONS #
#-------------------------#

#- - - - - - - - - - - - - -#
start_highlevel nd3_planar gaussian
%nproc=1   
%mem=1GB   
%chk=[Pilgrim_name].chk 
#p hf/sto-3g
scf=verytight
NoSymm       

Input file for MEP calculation

0 1        
[Pilgrim_geometry]           

end_highlevel
#- - - - - - - - - - - - - -#

#- - - - - - - - - - - - - -#
start_highlevel nd3_pyram gaussian
%nproc=1   
%mem=1GB   
%chk=[Pilgrim_name].chk 
#p hf/sto-3g
scf=verytight
NoSymm       

Input file for MEP calculation

0 1        
[Pilgrim_geometry]           

end_highlevel
#- - - - - - - - - - - - - -#

#- - - - - - - - - - - - - -#
start_highlevel nh3_planar gaussian
%nproc=1   
%mem=1GB   
%chk=[Pilgrim_name].chk 
#p hf/sto-3g
scf=verytight
NoSymm       

Input file for MEP calculation

0 1        
[Pilgrim_geometry]           

end_highlevel
#- - - - - - - - - - - - - -#

#- - - - - - - - - - - - - -#
start_highlevel nh3_pyram gaussian
%nproc=1   
%mem=1GB   
%chk=[Pilgrim_name].chk 
#p hf/sto-3g
scf=verytight
NoSymm       

Input file for MEP calculation

0 1        
[Pilgrim_geometry]           

end_highlevel
#- - - - - - - - - - - - - -#


#======================================#
# INPUT FILE TEMPLATES FOR: ORCA       #
#======================================#

#-------------------------#
# MEP POINT CALCULATIONS  #
#-------------------------#

#- - - - - - - - - - - - - -#
start_meppoint nd3_planar orca
%pal nprocs 1 end  
! hf sto-3g TightSCF        
[Pilgrim_gradhess]         
* xyz 0 1
[Pilgrim_geometry]         
*

end_meppoint
#- - - - - - - - - - - - - -#

#- - - - - - - - - - - - - -#
start_meppoint nh3_planar orca
%pal nprocs 1 end  
! hf sto-3g TightSCF        
[Pilgrim_gradhess]         
* xyz 0 1
[Pilgrim_geometry]         
*

end_meppoint
#- - - - - - - - - - - - - -#

#-------------------------#
# HIGH-LEVEL CALCULATIONS #
#-------------------------#

#- - - - - - - - - - - - - -#
start_highlevel nd3_planar orca
%pal nprocs 1 end  
! hf 6-31G TightSCF        
* xyz 0 1
[Pilgrim_geometry]         
*

end_highlevel
#- - - - - - - - - - - - - -#

#- - - - - - - - - - - - - -#
start_highlevel nd3_pyram orca
%pal nprocs 1 end  
! hf 6-31G TightSCF        
* xyz 0 1
[Pilgrim_geometry]         
*

end_highlevel
#- - - - - - - - - - - - - -#

#- - - - - - - - - - - - - -#
start_highlevel nh3_planar orca
%pal nprocs 1 end  
! hf 6-31G TightSCF        
* xyz 0 1
[Pilgrim_geometry]         
*

end_highlevel
#- - - - - - - - - - - - - -#

#- - - - - - - - - - - - - -#
start_highlevel nh3_pyram orca
%pal nprocs 1 end  
! hf 6-31G TightSCF        
* xyz 0 1
[Pilgrim_geometry]         
*

end_highlevel
#- - - - - - - - - - - - - -#


